variable    	seed equal 102486
variable    	T equal 300
variable    	V equal vol
variable    	P equal 1.01325 # 1 atm in bar 
variable    	dt equal 0.001 # 1 fs in metal
variable    	r equal 100000
variable    	p equal 50     # correlation length
variable    	s equal 10      # sample interval
variable    	d equal $p*$s   # dump interval
variable    	kB equal 1.3806504e-23    # [J/K] Boltzmann

# Convert from LAMMPS metal units to SI
variable    	eV2J equal  96485.31/6.02214e23
variable    	ps2s equal 1.0e-12
variable    	A2m equal 1.0e-10
variable    	convert equal ${eV2J}*${eV2J}/${ps2s}/${A2m}

# Initialization
units		metal
dimension	3
boundary	p p m
atom_style	charge
box		tilt large

# Read Data
read_data	389.lmp
replicate	1 1 1
mass            1 12.0107 # C

# Potential (Airebo)
pair_style	airebo 2.0
pair_coeff	* * CH.airebo C
fix		1 all momentum 1 linear 1 1 1 angular

# Minimization 
thermo		10
dump		1 all custom 100 minim.lammpstrj id element x y z
dump_modify	1 element C
neigh_modify	every 1 delay 0 check yes
min_style	fire
min_modify	dmax 2.0 line quadratic
minimize	1.0e-10 1.0e-10 10000 10000
neigh_modify	delay 0
undump		1
reset_timestep	0

# Equilibration and Thermalization
timestep	${dt}
thermo       	$d
velocity     	all create $T ${seed} mom yes rot yes dist gaussian
fix         	2 all nvt temp $T $T ${dt}
run          	10000
reset_timestep	0

unfix		2
fix		NVE all nve
dump		3 all custom 1 pdos.lammpstrj id type vx vy vz
dump_modify	3 sort id
run        	$r

print		"SIMULATION DONE"
